
  32    4
  10   10   10   10

   0   0   0   0   0   7 2 16 17 28 29 30 31 
   7  10  10  10  10   3 27 26 3 
   2  10  10  10  10   3 25 24 4 
   1  10  10  10  10   1 5 
   1  10  10  10  10   3 23 22 6 
   6  10  10  10  10   1 7 
   5  10  10  10  10   2 21 8 
   7  10  10  10  10   1 9 
   8  10  10  10  10   1 10 
   1  10  10  10  10   2 20 11 
   3  10  10  10  10   1 12 
   8  10  10  10  10   2 19 13 
   5  10  10  10  10   1 14 
   4  10  10  10  10   1 15 
   1  10  10  10  10   1 18 
   6  10  10  10  10   1 18 
   5  10  10  10  10   1 18 
   9  10  10  10  10   1 32
   2  10  10  10  10   1 32
  10  10  10  10  10   1 32
   9  10  10  10  10   1 32
   4  10  10  10  10   1 32
   3  10  10  10  10   1 32
   9  10  10  10  10   1 32
   5  10  10  10  10   1 32
   2  10  10  10  10   1 32
   3  10  10  10  10   1 32
   6  10  10  10  10   1 32
   4  10  10  10  10   1 32
   7  10  10  10  10   1 32
   1  10  10  10  10   1 32
   0   0   0   0   0   0 
